p tw 24 36
1 7
1 14
1 17
2 4
2 12
2 15
3 4
3 5
3 9
4 18
5 8
5 12
6 8
6 20
6 22
7 15
7 16
8 9
9 13
10 12
10 18
10 23
11 13
11 18
11 24
13 14
14 20
15 22
16 19
16 24
17 21
17 24
19 20
19 21
21 23
22 23
